 &control
    calculation='bands'
    prefix='Mo5PB2',
    outdir = './out/',
    pseudo_dir='/home/ccarrio/Superconductors/QE-Mo5PB2/pseudo',
    verbosity='high'
    restart_mode = 'from_scratch'
 /
&SYSTEM
  degauss =   0.05
  ecutwfc =   36.0
  ibrav = 0
  nat = 16
  ntyp = 3
  occupations = 'smearing'
  smearing = 'cold'
  nbnd = 115                    !nbnd = # of electrons /2;for a metal, 20% more
/
&ELECTRONS
  conv_thr =   1.0d-10
  mixing_beta =   0.4
/
ATOMIC_SPECIES
B      10.811 B_pbe_v1.01.uspp.F.UPF
Mo     95.96 Mo_ONCV_PBE-1.0.oncvpsp.upf
P      30.973761 P.pbe-n-rrkjus_psl.1.0.0.UPF

CELL_PARAMETERS (angstrom)
   5.999186822   0.000000000   0.000000000
   0.000000000   5.999186822   0.000000000
   0.000000000   0.000000000  11.111171711

ATOMIC_POSITIONS (crystal)
Mo            0.0000000000        0.0000000000        0.0000000000
Mo            0.0000000000        0.0000000000        0.5000000000
Mo            0.5000000000        0.5000000000        0.5000000000
Mo            0.5000000000        0.5000000000        0.0000000000
Mo            0.1657131834        0.6657513784        0.1403476270
Mo            0.8342868166        0.3342486216        0.8596523730
Mo            0.8342868166        0.3342486216        0.1403476270
Mo            0.1657131834        0.6657513784        0.8596523730
Mo            0.3342486216        0.1657131834        0.1403476270
Mo            0.6657513784        0.8342868166        0.8596523730
Mo            0.6657513784        0.8342868166        0.1403476270
Mo            0.3342486216        0.1657131834        0.8596523730
Mo            0.8343137009        0.6657580884        0.3596312655
Mo            0.1656862991        0.3342419116        0.6403687345
Mo            0.1656862991        0.3342419116        0.3596312655
Mo            0.8343137009        0.6657580884        0.6403687345
Mo            0.6657580884        0.1656862991        0.3596312655
Mo            0.3342419116        0.8343137009        0.6403687345
Mo            0.3342419116        0.8343137009        0.3596312655
Mo            0.6657580884        0.1656862991        0.6403687345
P             0.0000000000        0.0000000000        0.2499900856
P             0.0000000000        0.0000000000        0.7500099144
P             0.5000000000        0.5000000000        0.7500046035
P             0.5000000000        0.5000000000        0.2499953965
B             0.6190916813        0.1193888378        0.0000000000
B             0.3809083187        0.8806111622        0.0000000000
B             0.8806111622        0.6190916813       -0.0000000000
B             0.1193888378        0.3809083187       -0.0000000000
B             0.3809552260        0.1194957042        0.5000000000
B             0.6190447740        0.8805042958        0.5000000000
B             0.1194957042        0.6190447740        0.5000000000
B             0.8805042958        0.3809552260        0.5000000000



 
K_POINTS crystal
64
  0.00000000  0.00000000  0.00000000  1.562500e-02
  0.00000000  0.00000000  0.25000000  1.562500e-02
  0.00000000  0.00000000  0.50000000  1.562500e-02
  0.00000000  0.00000000  0.75000000  1.562500e-02
  0.00000000  0.25000000  0.00000000  1.562500e-02
  0.00000000  0.25000000  0.25000000  1.562500e-02
  0.00000000  0.25000000  0.50000000  1.562500e-02
  0.00000000  0.25000000  0.75000000  1.562500e-02
  0.00000000  0.50000000  0.00000000  1.562500e-02
  0.00000000  0.50000000  0.25000000  1.562500e-02
  0.00000000  0.50000000  0.50000000  1.562500e-02
  0.00000000  0.50000000  0.75000000  1.562500e-02
  0.00000000  0.75000000  0.00000000  1.562500e-02
  0.00000000  0.75000000  0.25000000  1.562500e-02
  0.00000000  0.75000000  0.50000000  1.562500e-02
  0.00000000  0.75000000  0.75000000  1.562500e-02
  0.25000000  0.00000000  0.00000000  1.562500e-02
  0.25000000  0.00000000  0.25000000  1.562500e-02
  0.25000000  0.00000000  0.50000000  1.562500e-02
  0.25000000  0.00000000  0.75000000  1.562500e-02
  0.25000000  0.25000000  0.00000000  1.562500e-02
  0.25000000  0.25000000  0.25000000  1.562500e-02
  0.25000000  0.25000000  0.50000000  1.562500e-02
  0.25000000  0.25000000  0.75000000  1.562500e-02
  0.25000000  0.50000000  0.00000000  1.562500e-02
  0.25000000  0.50000000  0.25000000  1.562500e-02
  0.25000000  0.50000000  0.50000000  1.562500e-02
  0.25000000  0.50000000  0.75000000  1.562500e-02
  0.25000000  0.75000000  0.00000000  1.562500e-02
  0.25000000  0.75000000  0.25000000  1.562500e-02
  0.25000000  0.75000000  0.50000000  1.562500e-02
  0.25000000  0.75000000  0.75000000  1.562500e-02
  0.50000000  0.00000000  0.00000000  1.562500e-02
  0.50000000  0.00000000  0.25000000  1.562500e-02
  0.50000000  0.00000000  0.50000000  1.562500e-02
  0.50000000  0.00000000  0.75000000  1.562500e-02
  0.50000000  0.25000000  0.00000000  1.562500e-02
  0.50000000  0.25000000  0.25000000  1.562500e-02
  0.50000000  0.25000000  0.50000000  1.562500e-02
  0.50000000  0.25000000  0.75000000  1.562500e-02
  0.50000000  0.50000000  0.00000000  1.562500e-02
  0.50000000  0.50000000  0.25000000  1.562500e-02
  0.50000000  0.50000000  0.50000000  1.562500e-02
  0.50000000  0.50000000  0.75000000  1.562500e-02
  0.50000000  0.75000000  0.00000000  1.562500e-02
  0.50000000  0.75000000  0.25000000  1.562500e-02
  0.50000000  0.75000000  0.50000000  1.562500e-02
  0.50000000  0.75000000  0.75000000  1.562500e-02
  0.75000000  0.00000000  0.00000000  1.562500e-02
  0.75000000  0.00000000  0.25000000  1.562500e-02
  0.75000000  0.00000000  0.50000000  1.562500e-02
  0.75000000  0.00000000  0.75000000  1.562500e-02
  0.75000000  0.25000000  0.00000000  1.562500e-02
  0.75000000  0.25000000  0.25000000  1.562500e-02
  0.75000000  0.25000000  0.50000000  1.562500e-02
  0.75000000  0.25000000  0.75000000  1.562500e-02
  0.75000000  0.50000000  0.00000000  1.562500e-02
  0.75000000  0.50000000  0.25000000  1.562500e-02
  0.75000000  0.50000000  0.50000000  1.562500e-02
  0.75000000  0.50000000  0.75000000  1.562500e-02
  0.75000000  0.75000000  0.00000000  1.562500e-02
  0.75000000  0.75000000  0.25000000  1.562500e-02
  0.75000000  0.75000000  0.50000000  1.562500e-02
  0.75000000  0.75000000  0.75000000  1.562500e-02
