--
&inputph
  prefix   = 'Mo5PB2'
  fildvscf = 'dvscf'
  outdir = './out/'
  fildyn   = './out/Mo5PB2.dyn'
  ldisp = .true.
  nq1=4,
  nq2=4,
  nq3=4,
  tr2_ph   =  1.0d-6
  alpha_mix(1)=0.4
  recover=.true.
 /
