 &control
    calculation='scf'
    prefix='Mo5PB2',
    outdir = './out/',
    pseudo_dir='/home/ccarrio/Superconductors/PQE-Mo5PB2/pseudo',
 /
&SYSTEM
  degauss =   0.05
  ecutwfc =   36.0
  ibrav = 0
  nat = 16
  ntyp = 3
  occupations = 'smearing'
  smearing = 'cold'
/
&ELECTRONS
  conv_thr =   1.0d-10
  mixing_beta =   0.4
/
ATOMIC_SPECIES
B      10.811 B_pbe_v1.01.uspp.F.UPF
Mo     95.96 Mo_ONCV_PBE-1.0.oncvpsp.upf
P      30.973761 P.pbe-n-rrkjus_psl.1.0.0.UPF

CELL_PARAMETERS (angstrom)
  -3.000393736   3.000393736   5.552261097
   3.000393736  -3.000393736   5.552261097
   3.000393736   3.000393736  -5.552261097

ATOMIC_POSITIONS (crystal)
B             0.1195671469        0.6195671469        0.7391342937
B             0.8804328531        0.3804328531        0.2608657063
B             0.6195671469        0.8804328531        0.5000000000
B             0.3804328531        0.1195671469        0.5000000000
Mo           -0.0000000000       -0.0000000000       -0.0000000000
Mo            0.5000000000        0.5000000000       -0.0000000000
Mo            0.8059674416        0.3059674416        0.8311877610
Mo            0.1940325584        0.6940325584        0.1688122390
Mo            0.4747796806        0.9747796806        0.1688122390
Mo            0.5252203194        0.0252203194        0.8311877610
Mo            0.3059674416        0.4747796806        0.5000000000
Mo            0.6940325584        0.5252203194        0.5000000000
Mo            0.9747796806        0.8059674416        0.5000000000
Mo            0.0252203194        0.1940325584        0.5000000000
P             0.2500000000        0.2500000000       -0.0000000000
P             0.7500000000        0.7500000000       -0.0000000000

K_POINTS automatic
12 12 12 0 0 0
